dimension    3
boundary     p p p
units        metal
atom_style   atomic
neighbor 2.0 bin
neigh_modify every 1 delay 0 check yes
pair_style   eam

region box block -200 200 0 49.28 0 200 units box
create_box 2 box

lattice fcc  3.52
region ni1 cylinder y 0 170 20 INF INF units box
create_atoms 1 region ni1

lattice fcc  3.52
region ni2 cylinder y 0 80 60 INF INF units box
create_atoms 2 region ni2

region fix block INF INF INF INF INF 30 units box
group fix region fix

group ni1 type 1
group ni2 type 2
group ni2_move subtract ni2 fix

pair_coeff * * Ni_u3.eam

timestep 0.002
thermo 1000
compute myT1 ni2_move temp
compute myT ni2_move temp/partial 1 1 0
thermo_style custom step temp
thermo_modify temp myT flush yes

velocity ni2_move create 300 5645354 temp myT1 loop local dist gaussian rot yes
dump mydump all atom 1000 atom.lammpstrj

fix fxnvt ni2_move nvt temp 300.0 300.0 0.2

run 100000

unfix fxnvt
fix fxnve ni2_move nve

velocity ni1 set 0.0 0.0 -0.1 units box

compute myp ni2 stress/atom myT
variable  mypxx atom -c_myp[1]/12  # 12 need to be change to volume of one Ni atom
variable  mypyy atom -c_myp[2]/12
variable  mypzz atom -c_myp[3]/12
variable  myTx atom mass*vx*vx
dump mydump2 all custom 1000 atom2.lammpstrj id type x y z v_mypxx v_mypyy v_mypzz v_myTx

run 1000000










