    bond_coeff   1           600.0   1.0
    angle_coeff  1         75.0    109.47
    pair_coeff   1 1    0.1553  3.166 
    pair_coeff   2 2    0.0     2.058 
    pair_coeff 3 3 0.066 3.5000000
    pair_coeff 4 4 0.066 3.5000000
    pair_coeff 5 5 0.066 3.5000000
    pair_coeff 6 6 0.066 3.5000000
    pair_coeff 7 7 0.066 3.5000000
    pair_coeff 8 8 0.066 3.5000000
    pair_coeff 9 9 0.066 3.5000000
    pair_coeff 10 10 0.066 3.5000000
    pair_coeff 11 11 0.066 3.5000000
    pair_coeff 12 12 0.066 3.5000000
    pair_coeff 13 13 0.066 3.5000000
    pair_coeff 14 14 0.066 3.5000000
    pair_coeff 15 15 0.250 3.5500000
    pair_coeff 16 16 0.170 2.9600000
    pair_coeff 17 17 0.170 2.9600000
    pair_coeff 18 18 0.170 2.9600000
    pair_coeff 19 19 0.030 2.5000000
    pair_coeff 20 20 0.030 2.5000000
    pair_coeff 21 21 0.030 2.5000000
    pair_coeff 22 22 0.030 2.5000000
    pair_coeff 23 23 0.030 2.5000000
    pair_coeff 24 24 0.030 2.5000000
    pair_coeff 25 25 0.030 2.5000000
    pair_coeff 26 26 0.030 2.5000000
    pair_coeff 27 27 0.030 2.5000000
    pair_coeff 28 28 0.030 2.5000000
    pair_coeff 29 29 0.030 2.5000000
    pair_coeff 30 30 0.030 2.5000000
    pair_coeff 31 31 0.030 2.5000000
    pair_coeff 32 32 0.030 2.5000000
    pair_coeff 33 33 0.030 2.5000000
    pair_coeff 34 34 0.030 2.5000000
    pair_coeff 35 35 0.030 2.5000000
    pair_coeff 36 36 0.030 2.5000000
    pair_coeff 37 37 0.030 2.5000000
    pair_coeff 38 38 0.030 2.5000000
    pair_coeff 39 39 0.030 2.5000000
    pair_coeff 40 40 0.030 2.5000000
    pair_coeff 41 41 0.030 2.5000000
    pair_coeff 42 42 0.030 2.5000000
    pair_coeff 43 43 0.030 2.5000000
    bond_coeff 2 268.0000 1.5290
    bond_coeff 3 268.0000 1.5290
    bond_coeff 4 268.0000 1.5290
    bond_coeff 5 268.0000 1.5290
    bond_coeff 6 268.0000 1.5290
    bond_coeff 7 268.0000 1.5290
    bond_coeff 8 268.0000 1.5290
    bond_coeff 9 268.0000 1.5290
    bond_coeff 10 268.0000 1.5290
    bond_coeff 11 268.0000 1.5290
    bond_coeff 12 268.0000 1.5290
    bond_coeff 13 340.0000 1.7700
    bond_coeff 14 700.0000 1.4400
    bond_coeff 15 700.0000 1.4400
    bond_coeff 16 700.0000 1.4400
    bond_coeff 17 340.0000 1.0900
    bond_coeff 18 340.0000 1.0900
    bond_coeff 19 340.0000 1.0900
    bond_coeff 20 340.0000 1.0900
    bond_coeff 21 340.0000 1.0900
    bond_coeff 22 340.0000 1.0900
    bond_coeff 23 340.0000 1.0900
    bond_coeff 24 340.0000 1.0900
    bond_coeff 25 340.0000 1.0900
    bond_coeff 26 340.0000 1.0900
    bond_coeff 27 340.0000 1.0900
    bond_coeff 28 340.0000 1.0900
    bond_coeff 29 340.0000 1.0900
    bond_coeff 30 340.0000 1.0900
    bond_coeff 31 340.0000 1.0900
    bond_coeff 32 340.0000 1.0900
    bond_coeff 33 340.0000 1.0900
    bond_coeff 34 340.0000 1.0900
    bond_coeff 35 340.0000 1.0900
    bond_coeff 36 340.0000 1.0900
    bond_coeff 37 340.0000 1.0900
    bond_coeff 38 340.0000 1.0900
    bond_coeff 39 340.0000 1.0900
    bond_coeff 40 340.0000 1.0900
    bond_coeff 41 340.0000 1.0900
    angle_coeff 2 58.350 112.700
    angle_coeff 3 58.350 112.700
    angle_coeff 4 58.350 112.700
    angle_coeff 5 58.350 112.700
    angle_coeff 6 58.350 112.700
    angle_coeff 7 58.350 112.700
    angle_coeff 8 58.350 112.700
    angle_coeff 9 58.350 112.700
    angle_coeff 10 58.350 112.700
    angle_coeff 11 58.350 112.700
    angle_coeff 12 50.000 108.600
    angle_coeff 13 74.000 108.900
    angle_coeff 14 74.000 108.900
    angle_coeff 15 74.000 108.900
    angle_coeff 16 37.500 110.700
    angle_coeff 17 37.500 110.700
    angle_coeff 18 37.500 110.700
    angle_coeff 19 37.500 110.700
    angle_coeff 20 37.500 110.700
    angle_coeff 21 37.500 110.700
    angle_coeff 22 37.500 110.700
    angle_coeff 23 37.500 110.700
    angle_coeff 24 37.500 110.700
    angle_coeff 25 37.500 110.700
    angle_coeff 26 37.500 110.700
    angle_coeff 27 37.500 110.700
    angle_coeff 28 37.500 110.700
    angle_coeff 29 37.500 110.700
    angle_coeff 30 37.500 110.700
    angle_coeff 31 37.500 110.700
    angle_coeff 32 37.500 110.700
    angle_coeff 33 37.500 110.700
    angle_coeff 34 37.500 110.700
    angle_coeff 35 37.500 110.700
    angle_coeff 36 37.500 110.700
    angle_coeff 37 37.500 110.700
    angle_coeff 38 37.500 110.700
    angle_coeff 39 37.500 110.700
    angle_coeff 40 37.500 110.700
    angle_coeff 41 35.000 109.500
    angle_coeff 42 37.500 110.700
    angle_coeff 43 33.000 107.800
    angle_coeff 44 37.500 110.700
    angle_coeff 45 33.000 107.800
    angle_coeff 46 37.500 110.700
    angle_coeff 47 37.500 110.700
    angle_coeff 48 33.000 107.800
    angle_coeff 49 37.500 110.700
    angle_coeff 50 33.000 107.800
    angle_coeff 51 33.000 107.800
    angle_coeff 52 33.000 107.800
    angle_coeff 53 37.500 110.700
    angle_coeff 54 37.500 110.700
    angle_coeff 55 37.500 110.700
    angle_coeff 56 33.000 107.800
    angle_coeff 57 37.500 110.700
    angle_coeff 58 37.500 110.700
    angle_coeff 59 37.500 110.700
    angle_coeff 60 33.000 107.800
    angle_coeff 61 104.000 119.000
    angle_coeff 62 33.000 107.800
    angle_coeff 63 104.000 119.000
    angle_coeff 64 37.500 110.700
    angle_coeff 65 37.500 110.700
    angle_coeff 66 37.500 110.700
    angle_coeff 67 37.500 110.700
    angle_coeff 68 37.500 110.700
    angle_coeff 69 33.000 107.800
    angle_coeff 70 37.500 110.700
    angle_coeff 71 33.000 107.800
    angle_coeff 72 33.000 107.800
    angle_coeff 73 104.000 119.000
    angle_coeff 74 37.500 110.700
    angle_coeff 75 33.000 107.800
    angle_coeff 76 33.000 107.800
    angle_coeff 77 35.000 109.500
    angle_coeff 78 37.500 110.700
    angle_coeff 79 37.500 110.700
    dihedral_coeff 1 1.300 -0.200 0.200 0.000
    dihedral_coeff 2 1.300 -0.200 0.200 0.000
    dihedral_coeff 3 1.300 -0.200 0.200 0.000
    dihedral_coeff 4 1.300 -0.200 0.200 0.000
    dihedral_coeff 5 1.300 -0.200 0.200 0.000
    dihedral_coeff 6 1.300 -0.200 0.200 0.000
    dihedral_coeff 7 1.300 -0.200 0.200 0.000
    dihedral_coeff 8 1.300 -0.200 0.200 0.000
    dihedral_coeff 9 1.300 -0.200 0.200 0.000
    dihedral_coeff 10 1.262 -0.198 0.465 0.000
    dihedral_coeff 11 0.000 0.000 0.000 0.000
    dihedral_coeff 12 0.000 0.000 0.300 0.000
    dihedral_coeff 13 0.000 0.000 0.300 0.000
    dihedral_coeff 14 0.000 0.000 0.300 0.000
    dihedral_coeff 15 0.000 0.000 0.300 0.000
    dihedral_coeff 16 0.000 0.000 0.300 0.000
    dihedral_coeff 17 0.000 0.000 0.300 0.000
    dihedral_coeff 18 0.000 0.000 0.300 0.000
    dihedral_coeff 19 0.000 0.000 0.300 0.000
    dihedral_coeff 20 0.000 0.000 0.300 0.000
    dihedral_coeff 21 0.000 0.000 0.300 0.000
    dihedral_coeff 22 0.000 0.000 0.300 0.000
    dihedral_coeff 23 0.000 0.000 0.300 0.000
    dihedral_coeff 24 0.000 0.000 0.300 0.000
    dihedral_coeff 25 0.000 0.000 0.300 0.000
    dihedral_coeff 26 0.000 0.000 0.300 0.000
    dihedral_coeff 27 0.000 0.000 0.300 0.000
    dihedral_coeff 28 0.000 0.000 0.300 0.000
    dihedral_coeff 29 0.000 0.000 0.300 0.000
    dihedral_coeff 30 0.000 0.000 0.300 0.000
    dihedral_coeff 31 0.000 0.000 0.300 0.000
    dihedral_coeff 32 0.000 0.000 0.300 0.000
    dihedral_coeff 33 0.000 0.000 0.300 0.000
    dihedral_coeff 34 0.000 0.000 0.300 0.000
    dihedral_coeff 35 0.000 0.000 0.300 0.000
    dihedral_coeff 36 0.000 0.000 0.300 0.000
    dihedral_coeff 37 0.000 0.000 0.300 0.000
    dihedral_coeff 38 0.000 0.000 0.300 0.000
    dihedral_coeff 39 0.000 0.000 0.300 0.000
    dihedral_coeff 40 0.000 0.000 0.300 0.000
    dihedral_coeff 41 0.000 0.000 0.300 0.000
    dihedral_coeff 42 0.000 0.000 0.300 0.000
    dihedral_coeff 43 0.000 0.000 0.300 0.000
    dihedral_coeff 44 0.000 0.000 0.300 0.000
    dihedral_coeff 45 0.000 0.000 0.300 0.000
    dihedral_coeff 46 0.000 0.000 0.300 0.000
    dihedral_coeff 47 0.000 0.000 0.300 0.000
    dihedral_coeff 48 0.000 0.000 0.300 0.000
    dihedral_coeff 49 0.000 0.000 0.300 0.000
    dihedral_coeff 50 0.000 0.000 0.300 0.000
    dihedral_coeff 51 0.000 0.000 0.300 0.000
    dihedral_coeff 52 0.000 0.000 0.300 0.000
    dihedral_coeff 53 0.000 0.000 0.452 0.000
    dihedral_coeff 54 0.000 0.000 0.300 0.000
    dihedral_coeff 55 0.000 0.000 0.300 0.000
    dihedral_coeff 56 0.000 0.000 0.300 0.000
    dihedral_coeff 57 0.000 0.000 0.300 0.000
    dihedral_coeff 58 0.000 0.000 0.300 0.000
    dihedral_coeff 59 0.000 0.000 0.300 0.000
    dihedral_coeff 60 0.000 0.000 0.000 0.000
    dihedral_coeff 61 0.000 0.000 0.300 0.000
    dihedral_coeff 62 0.000 0.000 0.300 0.000
    dihedral_coeff 63 0.000 0.000 0.300 0.000
    dihedral_coeff 64 0.000 0.000 0.300 0.000
    dihedral_coeff 65 0.000 0.000 0.300 0.000
    dihedral_coeff 66 0.000 0.000 0.350 0.000
    dihedral_coeff 67 0.000 0.000 0.350 0.000
    dihedral_coeff 68 0.000 0.000 0.300 0.000
    dihedral_coeff 69 0.000 0.000 0.452 0.000
    dihedral_coeff 70 0.000 0.000 0.300 0.000
    dihedral_coeff 71 0.000 0.000 0.300 0.000
    dihedral_coeff 72 0.000 0.000 0.300 0.000
    dihedral_coeff 73 0.000 0.000 0.300 0.000
    dihedral_coeff 74 0.000 0.000 0.300 0.000
    dihedral_coeff 75 0.000 0.000 0.300 0.000
    dihedral_coeff 76 0.000 0.000 0.300 0.000
    dihedral_coeff 77 0.000 0.000 0.300 0.000
    dihedral_coeff 78 0.000 0.000 0.300 0.000
    dihedral_coeff 79 0.000 0.000 0.300 0.000
    dihedral_coeff 80 0.000 0.000 0.300 0.000
    dihedral_coeff 81 0.000 0.000 0.300 0.000
    dihedral_coeff 82 0.000 0.000 0.300 0.000
    dihedral_coeff 83 0.000 0.000 0.300 0.000
    dihedral_coeff 84 0.000 0.000 0.300 0.000
    dihedral_coeff 85 0.000 0.000 0.350 0.000
    dihedral_coeff 86 0.000 0.000 0.300 0.000
    dihedral_coeff 87 0.000 0.000 0.300 0.000
    dihedral_coeff 88 0.000 0.000 0.300 0.000
    dihedral_coeff 89 0.000 0.000 0.350 0.000
    dihedral_coeff 90 0.000 0.000 0.000 0.000
    dihedral_coeff 91 0.000 0.000 0.300 0.000
    dihedral_coeff 92 0.000 0.000 0.300 0.000
    dihedral_coeff 93 0.000 0.000 0.300 0.000
    dihedral_coeff 94 0.000 0.000 0.300 0.000
    dihedral_coeff 95 0.000 0.000 0.300 0.000
    dihedral_coeff 96 0.000 0.000 0.300 0.000
    dihedral_coeff 97 0.000 0.000 0.300 0.000
    dihedral_coeff 98 0.000 0.000 0.300 0.000
    dihedral_coeff 99 0.000 0.000 0.300 0.000
    dihedral_coeff 100 0.000 0.000 0.300 0.000
    dihedral_coeff 101 0.000 0.000 0.300 0.000
    dihedral_coeff 102 0.000 0.000 0.350 0.000
    dihedral_coeff 103 0.000 0.000 0.350 0.000
    dihedral_coeff 104 0.000 0.000 0.300 0.000
    dihedral_coeff 105 0.000 0.000 0.300 0.000
    dihedral_coeff 106 0.000 0.000 0.300 0.000
    dihedral_coeff 107 0.000 0.000 0.300 0.000
    dihedral_coeff 108 0.000 0.000 0.300 0.000
    improper_coeff 1 0.000 -1 2
    improper_coeff 2 0.000 -1 2
    improper_coeff 3 0.000 -1 2
    improper_coeff 4 0.000 -1 2
    improper_coeff 5 0.000 -1 2
    improper_coeff 6 0.000 -1 2
    improper_coeff 7 0.000 -1 2
    improper_coeff 8 0.000 -1 2
    improper_coeff 9 0.000 -1 2
    improper_coeff 10 0.000 -1 2
    improper_coeff 11 0.000 -1 2
    improper_coeff 12 0.000 -1 2
    improper_coeff 13 0.000 -1 2
    improper_coeff 14 0.000 -1 2
    improper_coeff 15 0.000 -1 2
    improper_coeff 16 0.000 -1 2
    improper_coeff 17 0.000 -1 2
    improper_coeff 18 0.000 -1 2
    improper_coeff 19 0.000 -1 2
    improper_coeff 20 0.000 -1 2
    improper_coeff 21 0.000 -1 2
    improper_coeff 22 0.000 -1 2
    improper_coeff 23 0.000 -1 2
    improper_coeff 24 0.000 -1 2
    improper_coeff 25 0.000 -1 2
    improper_coeff 26 0.000 -1 2
    pair_coeff 44 44  0.3526418 2.1595384928
