dimension    3
boundary     p p p
units        metal
atom_style   atomic
neighbor 2.0 bin
neigh_modify every 1 delay 0 check yes
pair_style   eam

region box block -60 60 0 36.15 0 36.15 units box
create_box 2 box

lattice fcc  3.6150
region Cu block -50 50 0 36.15 0 36.15 units box
create_atoms 1 region Cu

pair_coeff * * Cu_u3.eam

timestep 0.002
thermo 1000
thermo_style custom step temp
thermo_modify flush yes

velocity Cu create 300 5645354 loop local dist gaussian rot yes
dump mydump all atom 1000 atom.lammpstrj

fix fxnvt Cu nvt temp 300.0 300.0 0.2

run 100000

unfix fxnvt
fix fxnvt Cu nvt temp 800.0 800.0 0.2

compute myp all stress/atom NULL

run 1000000










