    pair_coeff 1 1 0.066 3.5000000
    pair_coeff 2 2 0.066 3.5000000
    pair_coeff 3 3 0.066 3.5000000
    pair_coeff 4 4 0.066 3.5000000
    pair_coeff 5 5 0.170 3.2500000
    pair_coeff 6 6 0.070 3.5500000
    pair_coeff 7 7 0.070 3.5500000
    pair_coeff 8 8 0.170 3.2500000
    pair_coeff 9 9 0.066 3.5000000
    pair_coeff 10 10 0.070 3.5500000
    pair_coeff 11 11 0.030 2.5000000
    pair_coeff 12 12 0.030 2.5000000
    pair_coeff 13 13 0.030 2.5000000
    pair_coeff 14 14 0.030 2.5000000
    pair_coeff 15 15 0.030 2.5000000
    pair_coeff 16 16 0.030 2.5000000
    pair_coeff 17 17 0.030 2.5000000
    pair_coeff 18 18 0.030 2.5000000
    pair_coeff 19 19 0.030 2.5000000
    pair_coeff 20 20 0.030 2.4200000
    pair_coeff 21 21 0.030 2.4200000
    pair_coeff 22 22 0.030 2.5000000
    pair_coeff 23 23 0.030 2.5000000
    pair_coeff 24 24 0.030 2.5000000
    pair_coeff 25 25 0.030 2.4200000
    bond_coeff 1 268.0000 1.5290
    bond_coeff 2 268.0000 1.5290
    bond_coeff 3 268.0000 1.5290
    bond_coeff 4 337.0000 1.4750
    bond_coeff 5 427.0000 1.3810
    bond_coeff 6 512.0000 1.3750
    bond_coeff 7 427.0000 1.3810
    bond_coeff 8 337.0000 1.4750
    bond_coeff 9 477.0000 1.3430
    bond_coeff 10 340.0000 1.0900
    bond_coeff 11 340.0000 1.0900
    bond_coeff 12 340.0000 1.0900
    bond_coeff 13 340.0000 1.0900
    bond_coeff 14 340.0000 1.0900
    bond_coeff 15 340.0000 1.0900
    bond_coeff 16 340.0000 1.0900
    bond_coeff 17 340.0000 1.0900
    bond_coeff 18 340.0000 1.0900
    bond_coeff 19 367.0000 1.0800
    bond_coeff 20 367.0000 1.0800
    bond_coeff 21 340.0000 1.0900
    bond_coeff 22 340.0000 1.0900
    bond_coeff 23 340.0000 1.0900
    bond_coeff 24 367.0000 1.0800
    bond_coeff 25 477.0000 1.3430
    angle_coeff 1 58.350 112.700
    angle_coeff 2 58.350 112.700
    angle_coeff 3 51.650 110.580
    angle_coeff 4 63.000 112.400
    angle_coeff 5 70.000 120.000
    angle_coeff 6 70.000 120.000
    angle_coeff 7 63.000 112.400
    angle_coeff 8 63.000 112.400
    angle_coeff 9 37.500 110.700
    angle_coeff 10 37.500 110.700
    angle_coeff 11 37.500 110.700
    angle_coeff 12 37.500 110.700
    angle_coeff 13 37.500 110.700
    angle_coeff 14 37.500 110.700
    angle_coeff 15 37.500 110.700
    angle_coeff 16 37.500 110.700
    angle_coeff 17 37.500 110.700
    angle_coeff 18 35.000 121.600
    angle_coeff 19 35.000 130.700
    angle_coeff 20 35.000 109.500
    angle_coeff 21 35.000 109.500
    angle_coeff 22 35.000 109.500
    angle_coeff 23 35.000 120.000
    angle_coeff 24 33.000 107.800
    angle_coeff 25 37.500 110.700
    angle_coeff 26 37.500 110.700
    angle_coeff 27 63.000 112.400
    angle_coeff 28 33.000 107.800
    angle_coeff 29 33.000 107.800
    angle_coeff 30 70.000 109.800
    angle_coeff 31 33.000 107.800
    angle_coeff 32 33.000 107.800
    angle_coeff 33 70.000 120.000
    angle_coeff 34 33.000 107.800
    angle_coeff 35 33.000 107.800
    angle_coeff 36 70.000 109.800
    angle_coeff 37 33.000 107.800
    angle_coeff 38 35.000 109.500
    angle_coeff 39 35.000 120.000
    angle_coeff 40 35.000 121.600
    angle_coeff 41 37.500 110.700
    angle_coeff 42 37.500 110.700
    angle_coeff 43 33.000 107.800
    angle_coeff 44 35.000 109.500
    angle_coeff 45 35.000 130.700
    dihedral_coeff 1 1.300 -0.200 0.200 0.000
    dihedral_coeff 2 2.392 -0.674 0.550 0.000
    dihedral_coeff 3 1.000 -0.350 0.000 0.000
    dihedral_coeff 4 0.000 5.000 0.000 0.000
    dihedral_coeff 5 0.000 10.750 0.000 0.000
    dihedral_coeff 6 0.000 5.000 0.000 0.000
    dihedral_coeff 7 0.000 0.000 0.300 0.000
    dihedral_coeff 8 0.000 0.000 0.000 0.000
    dihedral_coeff 9 0.000 0.000 0.300 0.000
    dihedral_coeff 10 0.000 0.000 0.300 0.000
    dihedral_coeff 11 0.000 0.000 0.300 0.000
    dihedral_coeff 12 0.000 0.000 0.300 0.000
    dihedral_coeff 13 0.000 5.000 0.000 0.000
    dihedral_coeff 14 0.000 0.000 0.300 0.000
    dihedral_coeff 15 0.000 0.000 0.300 0.000
    dihedral_coeff 16 0.000 0.000 0.300 0.000
    dihedral_coeff 17 0.000 0.000 0.300 0.000
    dihedral_coeff 18 0.000 0.000 0.000 0.000
    dihedral_coeff 19 0.000 0.000 0.000 0.000
    dihedral_coeff 20 0.000 10.000 0.000 0.000
    dihedral_coeff 21 0.000 0.000 0.300 0.000
    dihedral_coeff 22 0.000 0.000 0.000 0.000
    dihedral_coeff 23 0.000 10.750 0.000 0.000
    dihedral_coeff 24 0.000 0.000 0.000 0.000
    dihedral_coeff 25 0.000 10.000 0.000 0.000
    dihedral_coeff 26 0.000 0.000 0.300 0.000
    dihedral_coeff 27 0.000 10.000 0.000 0.000
    dihedral_coeff 28 0.000 5.000 0.000 0.000
    dihedral_coeff 29 -1.013 -0.709 0.473 0.000
    dihedral_coeff 30 0.000 0.000 0.300 0.000
    dihedral_coeff 31 0.000 10.750 0.000 0.000
    dihedral_coeff 32 0.000 10.000 0.000 0.000
    dihedral_coeff 33 0.000 5.000 0.000 0.000
    dihedral_coeff 34 0.000 0.000 0.300 0.000
    dihedral_coeff 35 0.000 0.000 0.300 0.000
    dihedral_coeff 36 0.000 0.000 0.300 0.000
    dihedral_coeff 37 0.000 0.000 0.000 0.000
    dihedral_coeff 38 -1.013 -0.709 0.473 0.000
    dihedral_coeff 39 0.000 10.000 0.000 0.000
    dihedral_coeff 40 0.000 0.000 0.300 0.000
    dihedral_coeff 41 0.000 10.750 0.000 0.000
    dihedral_coeff 42 0.000 0.000 0.300 0.000
    dihedral_coeff 43 0.000 0.000 0.000 0.000
    dihedral_coeff 44 0.000 0.000 0.300 0.000
    dihedral_coeff 45 0.000 0.000 0.000 0.000
    dihedral_coeff 46 0.000 5.000 0.000 0.000
    dihedral_coeff 47 0.000 10.000 0.000 0.000
    dihedral_coeff 48 0.000 0.000 0.000 0.000
    dihedral_coeff 49 0.000 10.000 0.000 0.000
    dihedral_coeff 50 0.000 5.000 0.000 0.000
    dihedral_coeff 51 0.000 5.000 0.000 0.000
    dihedral_coeff 52 0.000 0.000 0.300 0.000
    dihedral_coeff 53 0.000 0.000 0.300 0.000
    dihedral_coeff 54 0.000 0.000 0.300 0.000
    dihedral_coeff 55 0.000 0.000 0.300 0.000
    dihedral_coeff 56 0.000 0.000 0.300 0.000
    dihedral_coeff 57 0.000 10.000 0.000 0.000
    dihedral_coeff 58 -1.000 -0.350 0.000 0.000
    dihedral_coeff 59 0.000 0.000 0.000 0.000
    improper_coeff 1 0.000 -1 2
    improper_coeff 2 0.000 -1 2
    improper_coeff 3 0.000 -1 2
    improper_coeff 4 0.000 -1 2
    improper_coeff 5 0.000 -1 2
    improper_coeff 6 0.000 -1 2
    improper_coeff 7 0.000 -1 2
    improper_coeff 8 0.000 -1 2
    improper_coeff 9 0.000 -1 2
    improper_coeff 10 2.500 -1 2
    improper_coeff 11 2.500 -1 2
    improper_coeff 12 0.000 -1 2
    improper_coeff 13 0.000 -1 2
    improper_coeff 14 2.500 -1 2
    pair_coeff 26 26 0.2   3.74
    pair_coeff 27 27 0.061 3.1181
	pair_coeff 28 28 0.066 3.5000000
    pair_coeff 29 29 0.066 3.5000000
    bond_coeff 26 370.46 1.606
    angle_coeff 46 139.22 90
