dimension    3
boundary     s p p
units        metal
atom_style   atomic
neighbor 2.0 bin
neigh_modify every 1 delay 0 check yes
pair_style   eam

region box block 0 119.295 -10 46 -10 46 units box
create_box 2 box

lattice fcc  3.6150
region Cu block 0 119.295 0 36.15 0 36.15 units box
create_atoms 1 region Cu

pair_coeff * * Cu_u3.eam

region left block INF 0.1 INF INF INF INF units box
group left region left
region right block 119.1 INF INF INF INF INF units box
group right region right

group cu subtract all left right 

timestep 0.002
thermo 100
thermo_style custom step temp pxx pyy pzz
thermo_modify flush yes

velocity cu create 300 5645354 loop local dist gaussian rot yes
dump mydump1 all atom 10000 atom1.lammpstrj

fix fxnvt cu nvt temp 300.0 300.0 0.2

run 100000

fix 1 right move linear 0.01 0.0 0.0 

compute myp all stress/atom NULL
variable  mypxx atom -c_myp[1]/12
variable  mypyy atom -c_myp[2]/12
variable  mypzz atom -c_myp[3]/12
dump mydump2 all custom 1000 atom2.lammpstrj id type x y z v_mypxx v_mypyy v_mypzz

run 500000










